c FILE /home/rafael/Documents/HappySet/MIHS/inputs/happygen/output/graph_d_regular_k4_p0.5_v50_20241127_082622.txt
c SOURCE This is a d-regular graph formed for the happy graph colouring problem.
c DESCRIPTION It was generated using the problem generator of Rhyd Lewis
c
c GRAPH STATS
c Seed                             = -1997273391
c Number of Nodes                  = 50
c Number of colours k              = 4
c Number of pre-assignments        = 25
c Degree of all vertices           = 6
c Density                          = 0.122449
c 
c The degrees of nodes 1 to 50, respectively, are as follows 
c [6, 6, 6, 6, 6, 6, 6, 6, 6, 6, 6, 6, 6, 6, 6, 6, 6, 6, 6, 6, 6, 6, 6, 6, 6, 6, 
c  6, 6, 6, 6, 6, 6, 6, 6, 6, 6, 6, 6, 6, 6, 6, 6, 6, 6, 6, 6, 6, 6, 6, 6] 
c  
p edge 50 150 4
e 1 9
e 1 16
e 1 33
e 1 38
e 1 44
e 1 50
e 2 14
e 2 26
e 2 36
e 2 40
e 2 41
e 2 48
e 3 11
e 3 29
e 3 39
e 3 40
e 3 46
e 3 49
e 4 7
e 4 10
e 4 13
e 4 24
e 4 26
e 4 31
e 5 17
e 5 19
e 5 33
e 5 40
e 5 41
e 5 44
e 6 8
e 6 12
e 6 20
e 6 28
e 6 38
e 6 39
e 7 10
e 7 22
e 7 26
e 7 45
e 7 46
e 8 9
e 8 15
e 8 32
e 8 35
e 8 43
e 9 16
e 9 19
e 9 33
e 9 46
e 10 11
e 10 15
e 10 33
e 10 48
e 11 22
e 11 31
e 11 37
e 11 46
e 12 19
e 12 24
e 12 28
e 12 31
e 12 44
e 13 16
e 13 21
e 13 30
e 13 39
e 13 44
e 14 29
e 14 39
e 14 47
e 14 48
e 14 50
e 15 20
e 15 31
e 15 38
e 15 43
e 16 27
e 16 43
e 16 48
e 17 18
e 17 23
e 17 25
e 17 30
e 17 42
e 18 24
e 18 27
e 18 28
e 18 34
e 18 47
e 19 22
e 19 29
e 19 30
e 20 28
e 20 39
e 20 42
e 20 43
e 21 25
e 21 29
e 21 35
e 21 37
e 21 49
e 22 25
e 22 32
e 22 37
e 23 29
e 23 35
e 23 42
e 23 45
e 23 47
e 24 32
e 24 37
e 24 49
e 25 32
e 25 35
e 25 45
e 26 35
e 26 36
e 26 47
e 27 37
e 27 41
e 27 45
e 27 49
e 28 31
e 28 41
e 29 34
e 30 35
e 30 36
e 30 42
e 31 41
e 32 33
e 32 34
e 33 46
e 34 36
e 34 38
e 34 50
e 36 39
e 36 48
e 37 42
e 38 44
e 38 48
e 40 42
e 40 43
e 40 50
e 41 50
e 43 49
e 44 47
e 45 46
e 45 49
e 47 50
n 1 4
n 3 4
n 7 2
n 8 1
n 10 2
n 13 4
n 19 4
n 23 4
n 24 4
n 25 3
n 26 2
n 27 4
n 28 2
n 29 4
n 30 4
n 31 2
n 34 4
n 37 4
n 39 4
n 40 4
n 42 4
n 44 4
n 48 2
n 49 4
n 50 4
